c description: Random 3-CNF over 16 variables and 68 clauses
c generator: CNFgen (0.9.2)
c copyright: (C) 2012-2022 Massimo Lauria <massimo.lauria@uniroma1.it>
c url: https://massimolauria.net/cnfgen
c command line: cnfgen --output CNF_4.28/16_bit_68_214.cnf randkcnf 3 16 68
c
p cnf 16 68
-3 5 -15 0
4 6 11 0
3 9 12 0
5 6 16 0
-1 8 10 0
-2 -6 9 0
-3 4 -16 0
4 -5 8 0
-5 14 -16 0
-6 -7 10 0
-8 12 -14 0
-8 -11 -15 0
9 -10 -13 0
2 7 -11 0
1 -11 15 0
5 -7 15 0
5 8 -12 0
-9 10 -15 0
2 -3 10 0
5 -8 13 0
-12 -13 -14 0
-1 -3 8 0
-2 15 16 0
-1 -5 -6 0
7 -8 -14 0
7 8 9 0
-10 -14 16 0
-2 -10 16 0
-4 -9 -11 0
2 13 -15 0
6 11 13 0
4 -10 13 0
-4 -10 -12 0
4 12 13 0
1 7 -13 0
8 -11 14 0
10 -15 16 0
3 -11 16 0
-3 9 10 0
-4 6 11 0
9 -10 12 0
-6 -7 -16 0
4 -6 -15 0
-9 10 -12 0
4 12 -15 0
-5 -11 12 0
-5 -14 15 0
-4 -6 -14 0
-3 -5 -7 0
-5 15 16 0
-1 -9 12 0
1 3 -4 0
2 -4 12 0
-7 -13 -14 0
-1 5 -11 0
3 -11 -14 0
6 12 -15 0
4 -6 -14 0
4 9 -10 0
2 -10 -12 0
-7 11 -13 0
-1 6 -15 0
-2 -10 12 0
-2 5 7 0
-7 8 9 0
6 -7 8 0
3 -12 13 0
-2 -5 14 0
